\ LP format - for model browsing. Use MPS format to capture full model detail.
Maximize
  var0 + var1 + var2 + var3 + 3 var4 + var5 + var6
Subject To
 constr0: var1 + var4 + var5 + var6 <= 3
 constr1: var0 + 3 var4 <= 3
 constr2: var3 + var4 + var5 + var6 <= 3
 constr3: var2 + var4 + var5 + var6 <= 3
 constr4: var1 + var4 + var5 + var6 <= 3
 constr5: var3 + var4 + var5 + var6 <= 3
 constr6: var2 + var4 + var5 + var6 <= 3
Bounds
Generals
 var0 var1 var2 var3 var4 var5 var6
End
